17,2	0,0	9,5	5,1	0,0	0,0	0,0	0,0	0,0	14,5
14,1	8,1	0,0	11,1	8,1	0,0	0,0	15,3	0,0	0,0
0,0	0,0	11,0	0,0	12,2	9,9	0,0	0,0	12,9	0,0
12,0	0,0	17,8	0,0	0,0	0,0	13,6	0,0	0,0	0,0
0,0	17,8	0,0	8,8	6,2	0,0	0,0	15,9	0,0	0,0
0,0	18,9	11,0	0,0	8,4	6,9	0,0	0,0	6,0	0,0
0,0	11,1	0,0	15,4	0,0	0,0	5,3	0,0	0,0	18,5
14,7	0,0	8,7	0,0	0,0	0,0	0,0	0,0	0,0	8,2
0,0	9,0	0,0	6,0	5,2	0,0	0,0	13,4	0,0	0,0
0,0	0,0	19,6	0,0	0,0	7,5	5,6	0,0	0,0	18,8
0,0	9,8	0,0	0,0	10,7	0,0	15,5	0,0	12,0	17,4
19,0	0,0	7,6	0,0	10,3	0,0	19,2	14,7	10,1	0,0
0,0	10,9	0,0	0,0	0,0	16,2	0,0	17,5	16,1	12,2
5,5	6,6	17,5	0,0	0,0	6,5	0,0	17,6	10,2	0,0
8,6	0,0	6,1	0,0	6,3	6,5	7,6	20,0	0,0	0,0
0,0	11,6	0,0	13,0	0,0	7,8	0,0	9,5	0,0	0,0
15,0	0,0	8,5	5,8	14,9	0,0	0,0	11,7	0,0	0,0
0,0	0,0	19,8	0,0	0,0	8,4	16,2	0,0	14,8	8,4
6,8	0,0	0,0	7,6	6,9	10,3	6,5	15,8	0,0	5,7
0,0	7,1	0,0	19,4	0,0	0,0	16,9	0,0	11,5	8,3
									
4,3	2,9	2,9	4,6	4,8	3,0	3,8	2,7	2,7	3,6
